<number of tasks>
100

<cycle time>
1000

<order strength>
0.596


<task times>
1 229
2 235
3 146
4 239
5 78
6 52
7 238
8 51
9 183
10 115
11 240
12 134
13 35
14 45
15 152
16 169
17 181
18 188
19 151
20 131
21 86
22 475
23 79
24 40
25 45
26 172
27 199
28 84
29 73
30 212
31 81
32 366
33 237
34 32
35 198
36 148
37 106
38 136
39 272
40 186
41 49
42 291
43 61
44 157
45 62
46 172
47 61
48 197
49 171
50 43
51 39
52 221
53 244
54 83
55 139
56 90
57 319
58 29
59 170
60 49
61 130
62 174
63 109
64 240
65 129
66 215
67 63
68 410
69 255
70 83
71 106
72 160
73 146
74 47
75 178
76 108
77 198
78 187
79 71
80 51
81 163
82 105
83 151
84 158
85 258
86 155
87 139
88 118
89 27
90 70
91 83
92 272
93 102
94 128
95 70
96 52
97 197
98 54
99 123
100 67

<precedence relations>
1,30
2,71
3,6
3,8
4,5
4,7
4,12
4,20
4,27
5,30
6,30
7,81
8,9
8,10
8,11
8,12
8,13
8,14
8,15
8,16
9,30
10,81
11,81
12,92
13,17
13,18
13,31
14,18
14,19
14,20
14,21
14,22
15,17
15,18
15,19
15,20
15,21
16,21
16,22
17,30
18,30
19,81
20,46
21,23
21,24
21,25
21,26
21,27
21,28
21,29
22,23
22,24
22,28
22,29
23,30
24,30
25,30
26,30
27,46
28,71
29,31
29,32
29,33
29,34
29,45
30,35
30,36
30,37
30,38
30,39
30,40
30,41
30,42
30,43
31,81
32,46
33,92
34,64
35,46
36,44
36,45
36,84
37,62
37,65
37,72
37,83
38,47
38,48
38,61
39,67
39,83
40,61
40,62
41,44
41,45
41,48
41,63
42,44
42,62
42,63
42,64
43,44
43,45
43,46
43,48
44,81
45,81
46,49
46,50
46,51
46,52
46,53
46,54
46,55
46,56
46,57
46,58
46,59
46,60
46,61
47,71
48,49
48,64
49,81
50,80
51,62
51,68
51,72
51,73
52,62
52,63
52,84
53,66
53,67
54,62
54,63
54,66
54,67
55,62
55,69
56,84
57,62
57,65
57,67
57,71
58,62
58,63
58,64
59,62
59,65
59,69
60,62
60,69
60,83
61,63
61,64
62,81
63,83
64,65
64,66
64,67
65,84
66,68
67,69
68,71
69,70
69,72
69,73
70,81
71,74
71,75
71,76
71,77
71,78
71,79
71,80
72,92
73,74
73,80
74,81
75,81
75,82
76,81
76,82
76,83
77,83
77,84
77,92
77,93
78,81
79,84
79,92
80,82
81,85
81,86
81,87
81,88
81,89
81,90
81,91
81,93
82,92
92,94
92,95
92,96
92,97
92,98
92,99
92,100

<end>
